* #variable= 12 #constraint= 41
min: 1 ~x1 1 ~x2 1 ~x3 1 ~x4 1 ~x5 1 ~x6 1 ~x7 1 ~x8 1 ~x9 1 ~x10 1 ~x11 1 ~x12 ;
@noedge1_3 -1 x3 -1 x1 >= -1 ;
@noedge2_3 -1 x3 -1 x2 >= -1 ;
@noedge1_4 -1 x4 -1 x1 >= -1 ;
@noedge2_4 -1 x4 -1 x2 >= -1 ;
@noedge3_5 -1 x5 -1 x3 >= -1 ;
@noedge4_5 -1 x5 -1 x4 >= -1 ;
@noedge1_6 -1 x6 -1 x1 >= -1 ;
@noedge2_6 -1 x6 -1 x2 >= -1 ;
@noedge5_6 -1 x6 -1 x5 >= -1 ;
@noedge1_7 -1 x7 -1 x1 >= -1 ;
@noedge2_7 -1 x7 -1 x2 >= -1 ;
@noedge3_7 -1 x7 -1 x3 >= -1 ;
@noedge4_7 -1 x7 -1 x4 >= -1 ;
@noedge5_7 -1 x7 -1 x5 >= -1 ;
@noedge3_8 -1 x8 -1 x3 >= -1 ;
@noedge4_8 -1 x8 -1 x4 >= -1 ;
@noedge6_8 -1 x8 -1 x6 >= -1 ;
@noedge7_8 -1 x8 -1 x7 >= -1 ;
@noedge1_9 -1 x9 -1 x1 >= -1 ;
@noedge2_9 -1 x9 -1 x2 >= -1 ;
@noedge3_9 -1 x9 -1 x3 >= -1 ;
@noedge4_9 -1 x9 -1 x4 >= -1 ;
@noedge5_9 -1 x9 -1 x5 >= -1 ;
@noedge6_9 -1 x9 -1 x6 >= -1 ;
@noedge4_10 -1 x10 -1 x4 >= -1 ;
@noedge5_10 -1 x10 -1 x5 >= -1 ;
@noedge6_10 -1 x10 -1 x6 >= -1 ;
@noedge7_10 -1 x10 -1 x7 >= -1 ;
@noedge8_10 -1 x10 -1 x8 >= -1 ;
@noedge2_11 -1 x11 -1 x2 >= -1 ;
@noedge4_11 -1 x11 -1 x4 >= -1 ;
@noedge5_11 -1 x11 -1 x5 >= -1 ;
@noedge6_11 -1 x11 -1 x6 >= -1 ;
@noedge8_11 -1 x11 -1 x8 >= -1 ;
@noedge2_12 -1 x12 -1 x2 >= -1 ;
@noedge3_12 -1 x12 -1 x3 >= -1 ;
@noedge4_12 -1 x12 -1 x4 >= -1 ;
@noedge5_12 -1 x12 -1 x5 >= -1 ;
@noedge8_12 -1 x12 -1 x8 >= -1 ;
@noedge10_12 -1 x12 -1 x10 >= -1 ;
@noedge11_12 -1 x12 -1 x11 >= -1 ;
